1953 1513
583 72
1892 68
1435 1046
5 2332
2336 2096
511 2280
1017 1078
1402 2368
430 2491
347 1243
556 383
298 2333
882 241
246 1949
2340 1333
836 1702
50 2212
1086 486
2152 431
674 571
1443 1402
983 1398
2286 1033
2103 1877
